c uprop, v00.0, 
c reading from data/prog76.c.cnf
c done reading: 0.003675
p cnf 181 850
-88 -106 0
88 106 0
-83 106 0
83 -106 0
88 -100 0
-98 -100 0
-88 98 100 0
-88 -93 98 0
88 -93 -98 0
88 93 98 0
-88 93 -98 0
-89 100 0
-86 -89 0
86 89 -100 0
-85 86 -100 0
-85 -86 100 0
85 86 100 0
85 -86 -100 0
-84 89 0
-81 -84 0
81 84 -89 0
-79 81 -89 0
-79 -81 89 0
79 81 89 0
79 -81 -89 0
84 -104 0
-102 -104 0
-84 102 104 0
-84 102 -108 0
84 -102 -108 0
84 102 108 0
-84 -102 108 0
104 -109 0
-95 -109 0
95 -104 109 0
95 -104 -110 0
-95 104 -110 0
95 104 110 0
-95 -104 110 0
109 -111 0
-91 -111 0
91 -109 111 0
91 -109 -112 0
-91 109 -112 0
91 109 112 0
-91 -109 112 0
98 -113 0
-98 113 0
-86 -106 114 0
86 106 -114 0
86 -114 0
106 -114 0
86 -114 -115 0
106 -114 -115 0
-114 -115 0
-86 114 115 0
-106 114 115 0
86 106 -115 0
-81 -98 116 0
-81 -114 116 0
-98 -114 116 0
81 98 -116 0
81 114 -116 0
98 114 -116 0
81 -116 -117 0
98 -116 -117 0
114 -116 -117 0
-81 116 117 0
-98 116 117 0
-114 116 117 0
-81 -98 -114 117 0
81 98 114 -117 0
-86 -102 118 0
-102 -116 118 0
-86 -116 118 0
86 102 -118 0
102 116 -118 0
86 116 -118 0
102 -118 -119 0
86 -118 -119 0
116 -118 -119 0
-102 118 119 0
-86 118 119 0
-116 118 119 0
-86 -102 -116 119 0
86 102 116 -119 0
-81 -95 120 0
-95 -118 120 0
-81 -118 120 0
81 95 -120 0
95 118 -120 0
81 118 -120 0
-78 95 -120 0
-78 81 -120 0
-78 118 -120 0
78 -95 120 0
78 -81 120 0
78 -118 120 0
78 -81 -95 -118 0
-78 81 95 118 0
77 -91 -102 0
77 -91 -120 0
77 -102 -120 0
-77 91 102 0
-77 91 120 0
-77 102 120 0
-76 -77 91 0
-76 -77 102 0
-76 -77 120 0
76 77 -91 0
76 77 -102 0
76 77 -120 0
76 -91 -102 -120 0
-76 91 102 120 0
-75 95 0
-75 77 0
75 -77 -95 0
-74 -77 -95 0
-74 77 95 0
74 77 -95 0
74 -77 95 0
91 -105 0
75 -105 0
-75 -91 105 0
-75 -91 -97 0
75 91 -97 0
75 -91 97 0
-75 91 97 0
-80 117 0
80 -117 0
101 -106 -119 0
-101 106 119 0
-101 119 0
-101 106 0
-94 -101 119 0
-94 -101 106 0
-94 -101 0
94 101 -119 0
94 101 -106 0
-94 106 119 0
-78 90 -98 0
-78 90 -101 0
90 -98 -101 0
78 -90 98 0
78 -90 101 0
-90 98 101 0
-73 78 -90 0
-73 -90 98 0
-73 -90 101 0
73 -78 90 0
73 90 -98 0
73 90 -101 0
73 -78 -98 -101 0
-73 78 98 101 0
72 -76 -86 0
72 -76 -90 0
72 -86 -90 0
-72 76 86 0
-72 76 90 0
-72 86 90 0
-71 -72 76 0
-71 -72 86 0
-71 -72 90 0
71 72 -76 0
71 72 -86 0
71 72 -90 0
71 -76 -86 -90 0
-71 76 86 90 0
70 -74 -81 0
70 -72 -74 0
70 -72 -81 0
-70 74 81 0
-70 72 74 0
-70 72 81 0
-69 -70 74 0
-69 -70 81 0
-69 -70 72 0
69 70 -74 0
69 70 -81 0
69 70 -72 0
69 -72 -74 -81 0
-69 72 74 81 0
68 -97 -102 0
68 -70 -97 0
68 -70 -102 0
-68 97 102 0
-68 70 97 0
-68 70 102 0
-67 -68 97 0
-67 -68 102 0
-67 -68 70 0
67 68 -97 0
67 68 -102 0
67 68 -70 0
67 -70 -97 -102 0
-67 70 97 102 0
66 -95 -105 0
66 -68 -105 0
66 -68 -95 0
-66 95 105 0
-66 68 105 0
-66 68 95 0
-65 -66 105 0
-65 -66 95 0
-65 -66 68 0
65 66 -105 0
65 66 -95 0
65 66 -68 0
65 -68 -95 -105 0
-65 68 95 105 0
-64 91 0
-64 66 0
64 -66 -91 0
-63 -66 -91 0
-63 66 91 0
63 66 -91 0
63 -66 91 0
-62 -106 0
62 106 0
-61 106 0
61 -106 0
-60 62 0
-60 -113 0
60 -62 113 0
-59 -62 113 0
-59 62 -113 0
59 62 113 0
59 -62 -113 0
-58 60 0
-58 -115 0
58 -60 115 0
-57 -60 115 0
-57 60 -115 0
57 60 115 0
57 -60 -115 0
-56 58 0
-56 -80 0
56 -58 80 0
-55 -58 80 0
-55 58 -80 0
55 58 80 0
55 -58 -80 0
56 -121 0
-94 -121 0
-56 94 121 0
-56 94 -122 0
56 -94 -122 0
56 94 122 0
-56 -94 122 0
121 -123 0
-73 -123 0
73 -121 123 0
73 -121 -124 0
-73 121 -124 0
73 121 124 0
-73 -121 124 0
123 -125 0
-71 -125 0
71 -123 125 0
71 -123 -126 0
-71 123 -126 0
71 123 126 0
-71 -123 126 0
125 -127 0
-69 -127 0
69 -125 127 0
69 -125 -128 0
-69 125 -128 0
69 125 128 0
-69 -125 128 0
127 -129 0
-67 -129 0
67 -127 129 0
67 -127 -130 0
-67 127 -130 0
67 127 130 0
-67 -127 130 0
129 -131 0
-65 -131 0
65 -129 131 0
65 -129 -132 0
-65 129 -132 0
65 129 132 0
-65 -129 132 0
131 -133 0
-63 -133 0
63 -131 133 0
63 -131 -134 0
-63 131 -134 0
63 131 134 0
-63 -131 134 0
133 -135 0
-64 -135 0
64 -133 135 0
64 -133 -136 0
-64 133 -136 0
64 133 136 0
-64 -133 136 0
-137 -139 0
-139 -140 0
137 139 140 0
137 140 -142 0
-137 -140 -142 0
-137 140 142 0
137 -140 142 0
139 -143 0
-143 -144 0
-139 143 144 0
-139 144 -146 0
139 -144 -146 0
139 144 146 0
-139 -144 146 0
143 -147 0
-147 -148 0
-143 147 148 0
-143 148 -150 0
143 -148 -150 0
143 148 150 0
-143 -148 150 0
147 -151 0
-151 -152 0
-147 151 152 0
-147 152 -154 0
147 -152 -154 0
147 152 154 0
-147 -152 154 0
151 -155 0
-155 -156 0
-151 155 156 0
-151 156 -158 0
151 -156 -158 0
151 156 158 0
-151 -156 158 0
155 -159 0
-159 -160 0
-155 159 160 0
-155 160 -162 0
155 -160 -162 0
155 160 162 0
-155 -160 162 0
159 -163 0
-163 -164 0
-159 163 164 0
-159 164 -166 0
159 -164 -166 0
159 164 166 0
-159 -164 166 0
140 -167 0
137 -167 0
-137 -140 167 0
-137 -140 -168 0
137 140 -168 0
137 -140 168 0
-137 140 168 0
-140 -144 169 0
-144 -167 169 0
-140 -167 169 0
140 144 -169 0
144 167 -169 0
140 167 -169 0
144 -169 -170 0
140 -169 -170 0
167 -169 -170 0
-144 169 170 0
-140 169 170 0
-167 169 170 0
-140 -144 -167 170 0
140 144 167 -170 0
-144 -148 171 0
-148 -169 171 0
-144 -169 171 0
144 148 -171 0
148 169 -171 0
144 169 -171 0
148 -171 -172 0
144 -171 -172 0
169 -171 -172 0
-148 171 172 0
-144 171 172 0
-169 171 172 0
-144 -148 -169 172 0
144 148 169 -172 0
-148 -152 173 0
-152 -171 173 0
-148 -171 173 0
148 152 -173 0
152 171 -173 0
148 171 -173 0
152 -173 -174 0
148 -173 -174 0
171 -173 -174 0
-152 173 174 0
-148 173 174 0
-171 173 174 0
-148 -152 -171 174 0
148 152 171 -174 0
-152 -156 175 0
-156 -173 175 0
-152 -173 175 0
152 156 -175 0
156 173 -175 0
152 173 -175 0
156 -175 -176 0
152 -175 -176 0
173 -175 -176 0
-156 175 176 0
-152 175 176 0
-173 175 176 0
-152 -156 -173 176 0
152 156 173 -176 0
-156 -160 177 0
-160 -175 177 0
-156 -175 177 0
156 160 -177 0
160 175 -177 0
156 175 -177 0
160 -177 -178 0
156 -177 -178 0
175 -177 -178 0
-160 177 178 0
-156 177 178 0
-175 177 178 0
-156 -160 -175 178 0
156 160 175 -178 0
107 -160 -164 0
107 -164 -177 0
107 -160 -177 0
-107 160 164 0
-107 164 177 0
-107 160 177 0
-99 -107 164 0
-99 -107 160 0
-99 -107 177 0
99 107 -164 0
99 107 -160 0
99 107 -177 0
99 -160 -164 -177 0
-99 160 164 177 0
-87 164 0
-87 107 0
87 -107 -164 0
-82 -107 -164 0
-82 107 164 0
82 107 -164 0
82 -107 164 0
-103 170 0
-103 137 0
103 -137 -170 0
-96 -137 -170 0
-96 137 170 0
96 137 -170 0
96 -137 170 0
92 -140 -172 0
92 -103 -172 0
92 -103 -140 0
-92 140 172 0
-92 103 172 0
-92 103 140 0
-92 -138 172 0
-92 -138 140 0
-92 103 -138 0
92 138 -172 0
92 138 -140 0
92 -103 138 0
-103 138 -140 -172 0
103 -138 140 172 0
141 -144 -174 0
-92 141 -174 0
-92 141 -144 0
-141 144 174 0
92 -141 174 0
92 -141 144 0
-141 -145 174 0
-141 144 -145 0
92 -141 -145 0
141 145 -174 0
141 -144 145 0
-92 141 145 0
-92 -144 145 -174 0
92 144 -145 174 0
-148 149 -176 0
-141 149 -176 0
-141 -148 149 0
148 -149 176 0
141 -149 176 0
141 148 -149 0
-149 -153 176 0
148 -149 -153 0
141 -149 -153 0
149 153 -176 0
-148 149 153 0
-141 149 153 0
-141 -148 153 -176 0
141 148 -153 176 0
-152 157 -178 0
-149 157 -178 0
-149 -152 157 0
152 -157 178 0
149 -157 178 0
149 152 -157 0
-157 -161 178 0
152 -157 -161 0
149 -157 -161 0
157 161 -178 0
-152 157 161 0
-149 157 161 0
-149 -152 161 -178 0
149 152 -161 178 0
-99 -156 165 0
-99 -157 165 0
-156 -157 165 0
99 156 -165 0
99 157 -165 0
156 157 -165 0
99 -165 -179 0
156 -165 -179 0
157 -165 -179 0
-99 165 179 0
-156 165 179 0
-157 165 179 0
-99 -156 -157 179 0
99 156 157 -179 0
-82 -160 180 0
-82 -165 180 0
-160 -165 180 0
82 160 -180 0
82 165 -180 0
160 165 -180 0
82 -180 -181 0
160 -180 -181 0
165 -180 -181 0
-82 180 181 0
-160 180 181 0
-165 180 181 0
-82 -160 -165 181 0
82 160 165 -181 0
54 -87 -164 0
54 -87 -180 0
54 -164 -180 0
-54 87 164 0
-54 87 180 0
-54 164 180 0
-53 -54 87 0
-53 -54 164 0
-53 -54 180 0
53 54 -87 0
53 54 -164 0
53 54 -180 0
53 -87 -164 -180 0
-53 87 164 180 0
-52 145 0
-52 137 0
52 -137 -145 0
-51 -137 -145 0
-51 137 145 0
51 137 -145 0
51 -137 145 0
50 -140 -153 0
50 -52 -153 0
50 -52 -140 0
-50 140 153 0
-50 52 153 0
-50 52 140 0
-49 -50 153 0
-49 -50 140 0
-49 -50 52 0
49 50 -153 0
49 50 -140 0
49 50 -52 0
49 -52 -140 -153 0
-49 52 140 153 0
48 -144 -161 0
48 -50 -161 0
48 -50 -144 0
-48 144 161 0
-48 50 161 0
-48 50 144 0
-47 -48 161 0
-47 -48 144 0
-47 -48 50 0
47 48 -161 0
47 48 -144 0
47 48 -50 0
47 -50 -144 -161 0
-47 50 144 161 0
46 -148 -179 0
46 -48 -179 0
46 -48 -148 0
-46 148 179 0
-46 48 179 0
-46 48 148 0
-45 -46 179 0
-45 -46 148 0
-45 -46 48 0
45 46 -179 0
45 46 -148 0
45 46 -48 0
45 -48 -148 -179 0
-45 48 148 179 0
44 -152 -181 0
44 -46 -181 0
44 -46 -152 0
-44 152 181 0
-44 46 181 0
-44 46 152 0
-43 -44 181 0
-43 -44 152 0
-43 -44 46 0
43 44 -181 0
43 44 -152 0
43 44 -46 0
43 -46 -152 -181 0
-43 46 152 181 0
42 -53 -156 0
42 -44 -53 0
42 -44 -156 0
-42 53 156 0
-42 44 53 0
-42 44 156 0
-41 -42 53 0
-41 -42 156 0
-41 -42 44 0
41 42 -53 0
41 42 -156 0
41 42 -44 0
41 -44 -53 -156 0
-41 44 53 156 0
40 -54 -160 0
40 -42 -54 0
40 -42 -160 0
-40 54 160 0
-40 42 54 0
-40 42 160 0
-39 -40 54 0
-39 -40 160 0
-39 -40 42 0
39 40 -54 0
39 40 -160 0
39 40 -42 0
39 -42 -54 -160 0
-39 42 54 160 0
-38 164 0
-38 40 0
38 -40 -164 0
-37 -40 -164 0
-37 40 164 0
37 40 -164 0
37 -40 164 0
-36 -137 0
-36 -168 0
36 137 168 0
-35 137 168 0
-35 -137 -168 0
35 -137 168 0
35 137 -168 0
-34 36 0
-34 -96 0
34 -36 96 0
-33 -36 96 0
-33 36 -96 0
33 36 96 0
33 -36 -96 0
-32 34 0
-32 -138 0
32 -34 138 0
-31 -34 138 0
-31 34 -138 0
31 34 138 0
31 -34 -138 0
-30 32 0
-30 -51 0
30 -32 51 0
-29 -32 51 0
-29 32 -51 0
29 32 51 0
29 -32 -51 0
-28 30 0
-28 -49 0
28 -30 49 0
-27 -30 49 0
-27 30 -49 0
27 30 49 0
27 -30 -49 0
-26 28 0
-26 -47 0
26 -28 47 0
-25 -28 47 0
-25 28 -47 0
25 28 47 0
25 -28 -47 0
-24 26 0
-24 -45 0
24 -26 45 0
-23 -26 45 0
-23 26 -45 0
23 26 45 0
23 -26 -45 0
-22 24 0
-22 -43 0
22 -24 43 0
-21 -24 43 0
-21 24 -43 0
21 24 43 0
21 -24 -43 0
-20 22 0
-20 -41 0
20 -22 41 0
-19 -22 41 0
-19 22 -41 0
19 22 41 0
19 -22 -41 0
-18 20 0
-18 -39 0
18 -20 39 0
-17 -20 39 0
-17 20 -39 0
17 20 39 0
17 -20 -39 0
-16 18 0
-16 -37 0
16 -18 37 0
-15 -18 37 0
-15 18 -37 0
15 18 37 0
15 -18 -37 0
-14 16 0
-14 -38 0
14 -16 38 0
-13 -16 38 0
-13 16 -38 0
13 16 38 0
13 -16 -38 0
-12 106 0
-12 137 0
12 -106 -137 0
-106 137 0
106 -137 0
11 -113 -168 0
11 -12 -113 0
11 -12 -168 0
-11 113 168 0
-11 12 113 0
-11 12 168 0
11 -113 0
11 -168 0
11 -12 0
-12 -113 -168 0
10 -96 -115 0
10 -11 -115 0
10 -11 -96 0
-10 96 115 0
-10 11 115 0
-10 11 96 0
-10 115 0
-10 96 0
-10 11 0
11 96 115 0
9 -80 -138 0
9 -10 -80 0
9 -10 -138 0
-9 80 138 0
-9 10 80 0
-9 10 138 0
-9 80 0
-9 138 0
-9 10 0
10 80 138 0
8 -51 -94 0
8 -9 -94 0
8 -9 -51 0
-8 51 94 0
-8 9 94 0
-8 9 51 0
8 -94 0
8 -51 0
8 -9 0
-9 -51 -94 0
7 -49 -73 0
7 -8 -73 0
7 -8 -49 0
-7 49 73 0
-7 8 73 0
-7 8 49 0
-7 73 0
-7 49 0
-7 8 0
8 49 73 0
6 -47 -71 0
6 -7 -71 0
6 -7 -47 0
-6 47 71 0
-6 7 71 0
-6 7 47 0
6 -71 0
6 -47 0
6 -7 0
-7 -47 -71 0
5 -45 -69 0
5 -6 -69 0
5 -6 -45 0
-5 45 69 0
-5 6 69 0
-5 6 45 0
5 -69 0
5 -45 0
5 -6 0
-6 -45 -69 0
4 -43 -67 0
4 -5 -67 0
4 -5 -43 0
-4 43 67 0
-4 5 67 0
-4 5 43 0
4 -67 0
4 -43 0
4 -5 0
-5 -43 -67 0
3 -41 -65 0
3 -4 -65 0
3 -4 -41 0
-3 41 65 0
-3 4 65 0
-3 4 41 0
3 -65 0
3 -41 0
3 -4 0
-4 -41 -65 0
2 -39 -63 0
2 -3 -63 0
2 -3 -39 0
-2 39 63 0
-2 3 63 0
-2 3 39 0
2 -63 0
2 -39 0
2 -3 0
-3 -39 -63 0
1 -37 -64 0
1 -2 -64 0
1 -2 -37 0
-1 37 64 0
-1 2 64 0
-1 2 37 0
1 -64 0
1 -37 0
1 -2 0
-2 -37 -64 0
-1 -38 0
1 -38 0
-1 38 0
